numero_plantas = 5;
numero_clientes = 4;
numero_dias = 7;

costos = [20.0, 10.0, 30.0, 15.0, 25.0];
capacidades = [1000.0, 300.0, 500.0, 400.0, 600.0];
G = 50;

demanda = [| 80.0, 110.0, 90.0, 120.0, 100.0, 150.0, 200.0,
           |150.0, 98.0, 340.0, 200.0, 180.0, 220.0, 250.0,
           |200.0, 150.0, 180.0, 220.0, 240.0, 260.0, 280.0,
           |100.0, 120.0, 140.0, 160.0, 180.0, 200.0, 220.0|];

pagos = [50.0, 40.0, 45.0, 35.0];
porcentaje_regimen_alto = [90.0, 80.0, 80.0, 85.0, 75.0];
max_dias_consecutivos_regimen = [2, 1, 2, 1, 3];